(set-logic QF_UF)
(declare-fun A0 () Bool)
(declare-fun A1 () Bool)
(declare-fun A2 () Bool)
(declare-fun A3 () Bool)
(declare-fun A4 () Bool)
(declare-fun A5 () Bool)
(declare-fun A6 () Bool)
(declare-fun A7 () Bool)
(declare-fun A8 () Bool)
(declare-fun A9 () Bool)
(declare-fun A10 () Bool)
(declare-fun A11 () Bool)
(declare-fun A12 () Bool)
(declare-fun A13 () Bool)
(declare-fun A14 () Bool)
(declare-fun A15 () Bool)
(declare-fun A16 () Bool)
(declare-fun A17 () Bool)
(declare-fun A18 () Bool)
(declare-fun A19 () Bool)
(declare-fun A20 () Bool)
(declare-fun A21 () Bool)
(declare-fun A22 () Bool)
(declare-fun A23 () Bool)
(declare-fun A24 () Bool)
(assert (let ((.def_0 (not A4))) (let ((.def_1 (or A4 .def_0))) (let ((.def_2 (not A8))) (let ((.def_3 (not A22))) (let ((.def_4 (or .def_3 .def_2))) (let ((.def_5 (not .def_4))) (let ((.def_6 (or .def_5 .def_1))) (let ((.def_7 (not .def_6))) (let ((.def_8 (not A19))) (let ((.def_9 (or .def_8 A22))) (let ((.def_10 (not .def_9))) (let ((.def_11 (or A15 A16))) (let ((.def_12 (or .def_11 .def_10))) (let ((.def_13 (or .def_12 .def_7))) (let ((.def_14 (or A15 A3))) (let ((.def_15 (not .def_14))) (let ((.def_16 (not A5))) (let ((.def_17 (not A17))) (let ((.def_18 (or .def_17 .def_16))) (let ((.def_19 (= .def_18 .def_15))) (let ((.def_20 (not .def_19))) (let ((.def_21 (not A12))) (let ((.def_22 (or A0 .def_21))) (let ((.def_23 (and .def_16 A9))) (let ((.def_24 (not .def_23))) (let ((.def_25 (or .def_24 .def_22))) (let ((.def_26 (and .def_25 .def_20))) (let ((.def_27 (not .def_26))) (let ((.def_28 (or .def_27 .def_13))) (let ((.def_29 (and A14 A6))) (let ((.def_30 (not A14))) (let ((.def_31 (or .def_30 A8))) (let ((.def_32 (not .def_31))) (let ((.def_33 (or .def_32 .def_29))) (let ((.def_34 (not .def_33))) (let ((.def_35 (or .def_2 .def_3))) (let ((.def_36 (not A24))) (let ((.def_37 (and A11 .def_36))) (let ((.def_38 (and .def_37 .def_35))) (let ((.def_39 (or .def_38 .def_34))) (let ((.def_40 (not .def_39))) (let ((.def_41 (not A9))) (let ((.def_42 (and .def_41 A9))) (let ((.def_43 (not A23))) (let ((.def_44 (and .def_43 A10))) (let ((.def_45 (or .def_44 .def_42))) (let ((.def_46 (or A20 A21))) (let ((.def_47 (not .def_46))) (let ((.def_48 (not A21))) (let ((.def_49 (and .def_48 A1))) (let ((.def_50 (or .def_49 .def_47))) (let ((.def_51 (or .def_50 .def_45))) (let ((.def_52 (not .def_51))) (let ((.def_53 (or .def_52 .def_40))) (let ((.def_54 (not .def_53))) (let ((.def_55 (and .def_54 .def_28))) (let ((.def_56 (not .def_55))) (let ((.def_57 (not A20))) (let ((.def_58 (not A0))) (let ((.def_59 (and .def_58 .def_57))) (let ((.def_60 (not .def_59))) (let ((.def_61 (or .def_8 A4))) (let ((.def_62 (or .def_61 .def_60))) (let ((.def_63 (not .def_62))) (let ((.def_64 (and .def_8 A1))) (let ((.def_65 (not .def_64))) (let ((.def_66 (not A7))) (let ((.def_67 (and .def_66 .def_30))) (let ((.def_68 (not .def_67))) (let ((.def_69 (or .def_68 .def_65))) (let ((.def_70 (= .def_69 .def_63))) (let ((.def_71 (not .def_70))) (let ((.def_72 (not A15))) (let ((.def_73 (and .def_72 A24))) (let ((.def_74 (not A13))) (let ((.def_75 (or .def_43 .def_74))) (let ((.def_76 (not .def_75))) (let ((.def_77 (or .def_76 .def_73))) (let ((.def_78 (and A19 A14))) (let ((.def_79 (not .def_78))) (let ((.def_80 (not A6))) (let ((.def_81 (or A19 .def_80))) (let ((.def_82 (and .def_81 .def_79))) (let ((.def_83 (and .def_82 .def_77))) (let ((.def_84 (not .def_83))) (let ((.def_85 (and .def_84 .def_71))) (let ((.def_86 (and A16 .def_58))) (let ((.def_87 (not .def_86))) (let ((.def_88 (and A16 .def_8))) (let ((.def_89 (not .def_88))) (let ((.def_90 (or .def_89 .def_87))) (let ((.def_91 (not .def_90))) (let ((.def_92 (or .def_58 .def_8))) (let ((.def_93 (not A18))) (let ((.def_94 (or A15 .def_93))) (let ((.def_95 (not .def_94))) (let ((.def_96 (and .def_95 .def_92))) (let ((.def_97 (and .def_96 .def_91))) (let ((.def_98 (not A11))) (let ((.def_99 (or .def_2 .def_98))) (let ((.def_100 (not .def_99))) (let ((.def_101 (or .def_2 .def_21))) (let ((.def_102 (or .def_101 .def_100))) (let ((.def_103 (and A1 .def_72))) (let ((.def_104 (or .def_66 A23))) (let ((.def_105 (or .def_104 .def_103))) (let ((.def_106 (= .def_105 .def_102))) (let ((.def_107 (not .def_106))) (let ((.def_108 (or .def_107 .def_97))) (let ((.def_109 (and .def_108 .def_85))) (let ((.def_110 (= .def_109 .def_56))) (let ((.def_111 (or A4 .def_58))) (let ((.def_112 (and A19 A16))) (let ((.def_113 (not .def_112))) (let ((.def_114 (and .def_113 .def_111))) (let ((.def_115 (or .def_2 .def_43))) (let ((.def_116 (not .def_115))) (let ((.def_117 (and A23 .def_93))) (let ((.def_118 (and .def_117 .def_116))) (let ((.def_119 (not .def_118))) (let ((.def_120 (or .def_119 .def_114))) (let ((.def_121 (and .def_43 .def_3))) (let ((.def_122 (not .def_121))) (let ((.def_123 (or .def_8 A13))) (let ((.def_124 (not .def_123))) (let ((.def_125 (or .def_124 .def_122))) (let ((.def_126 (not .def_125))) (let ((.def_127 (or .def_30 .def_17))) (let ((.def_128 (not A1))) (let ((.def_129 (and .def_128 .def_21))) (let ((.def_130 (and .def_129 .def_127))) (let ((.def_131 (not .def_130))) (let ((.def_132 (and .def_131 .def_126))) (let ((.def_133 (and .def_132 .def_120))) (let ((.def_134 (and A14 .def_57))) (let ((.def_135 (or .def_36 .def_43))) (let ((.def_136 (or .def_135 .def_134))) (let ((.def_137 (not A2))) (let ((.def_138 (and A22 .def_137))) (let ((.def_139 (or A20 A18))) (let ((.def_140 (or .def_139 .def_138))) (let ((.def_141 (and .def_140 .def_136))) (let ((.def_142 (not .def_141))) (let ((.def_143 (or .def_0 .def_98))) (let ((.def_144 (not .def_143))) (let ((.def_145 (or .def_74 .def_36))) (let ((.def_146 (not .def_145))) (let ((.def_147 (or .def_146 .def_144))) (let ((.def_148 (and A0 A0))) (let ((.def_149 (not .def_148))) (let ((.def_150 (or A5 .def_58))) (let ((.def_151 (not .def_150))) (let ((.def_152 (and .def_151 .def_149))) (let ((.def_153 (= .def_152 .def_147))) (let ((.def_154 (and .def_153 .def_142))) (let ((.def_155 (and .def_154 .def_133))) (let ((.def_156 (and A17 A21))) (let ((.def_157 (or .def_8 A21))) (let ((.def_158 (not .def_157))) (let ((.def_159 (or .def_158 .def_156))) (let ((.def_160 (not .def_159))) (let ((.def_161 (and .def_66 A6))) (let ((.def_162 (not .def_161))) (let ((.def_163 (and A11 A15))) (let ((.def_164 (and .def_163 .def_162))) (let ((.def_165 (or .def_164 .def_160))) (let ((.def_166 (not .def_165))) (let ((.def_167 (or A1 .def_74))) (let ((.def_168 (or .def_16 A16))) (let ((.def_169 (not .def_168))) (let ((.def_170 (and .def_169 .def_167))) (let ((.def_171 (or .def_16 A2))) (let ((.def_172 (or .def_137 .def_58))) (let ((.def_173 (and .def_172 .def_171))) (let ((.def_174 (not .def_173))) (let ((.def_175 (and .def_174 .def_170))) (let ((.def_176 (not .def_175))) (let ((.def_177 (and .def_176 .def_166))) (let ((.def_178 (not .def_177))) (let ((.def_179 (and A6 .def_93))) (let ((.def_180 (or A22 .def_41))) (let ((.def_181 (not .def_180))) (let ((.def_182 (= .def_181 .def_179))) (let ((.def_183 (or .def_48 A5))) (let ((.def_184 (not .def_183))) (let ((.def_185 (= .def_17 .def_128))) (let ((.def_186 (and .def_185 .def_184))) (let ((.def_187 (not .def_186))) (let ((.def_188 (or .def_187 .def_182))) (let ((.def_189 (not .def_188))) (let ((.def_190 (and .def_2 .def_3))) (let ((.def_191 (not .def_190))) (let ((.def_192 (or .def_128 A9))) (let ((.def_193 (not .def_192))) (let ((.def_194 (= .def_193 .def_191))) (let ((.def_195 (or .def_98 A13))) (let ((.def_196 (not .def_195))) (let ((.def_197 (and A3 .def_36))) (let ((.def_198 (not .def_197))) (let ((.def_199 (or .def_198 .def_196))) (let ((.def_200 (and .def_199 .def_194))) (let ((.def_201 (not .def_200))) (let ((.def_202 (and .def_201 .def_189))) (let ((.def_203 (not .def_202))) (let ((.def_204 (or .def_203 .def_178))) (let ((.def_205 (not .def_204))) (let ((.def_206 (and .def_205 .def_155))) (let ((.def_207 (and .def_206 .def_110))) (let ((.def_208 (or A1 A22))) (let ((.def_209 (not A10))) (let ((.def_210 (and .def_209 .def_43))) (let ((.def_211 (and .def_210 .def_208))) (let ((.def_212 (not .def_211))) (let ((.def_213 (not A3))) (let ((.def_214 (and A14 .def_213))) (let ((.def_215 (not .def_214))) (let ((.def_216 (and A0 .def_128))) (let ((.def_217 (and .def_216 .def_215))) (let ((.def_218 (or .def_217 .def_212))) (let ((.def_219 (or A12 .def_43))) (let ((.def_220 (not .def_219))) (let ((.def_221 (or A16 A9))) (let ((.def_222 (not .def_221))) (let ((.def_223 (and .def_222 .def_220))) (let ((.def_224 (not .def_223))) (let ((.def_225 (and A6 A17))) (let ((.def_226 (not .def_225))) (let ((.def_227 (or A24 A6))) (let ((.def_228 (or .def_227 .def_226))) (let ((.def_229 (and .def_228 .def_224))) (let ((.def_230 (not .def_229))) (let ((.def_231 (or .def_230 .def_218))) (let ((.def_232 (= .def_128 A17))) (let ((.def_233 (or .def_17 A23))) (let ((.def_234 (not .def_233))) (let ((.def_235 (or .def_234 .def_232))) (let ((.def_236 (not .def_235))) (let ((.def_237 (or A12 .def_66))) (let ((.def_238 (not .def_237))) (let ((.def_239 (and .def_137 A19))) (let ((.def_240 (not .def_239))) (let ((.def_241 (and .def_240 .def_238))) (let ((.def_242 (and .def_241 .def_236))) (let ((.def_243 (not .def_242))) (let ((.def_244 (and A14 A0))) (let ((.def_245 (or .def_21 .def_209))) (let ((.def_246 (not .def_245))) (let ((.def_247 (and .def_246 .def_244))) (let ((.def_248 (not .def_247))) (let ((.def_249 (and .def_66 .def_36))) (let ((.def_250 (or .def_16 A11))) (let ((.def_251 (and .def_250 .def_249))) (let ((.def_252 (and .def_251 .def_248))) (let ((.def_253 (not .def_252))) (let ((.def_254 (or .def_253 .def_243))) (let ((.def_255 (or .def_254 .def_231))) (let ((.def_256 (= .def_0 A18))) (let ((.def_257 (not .def_256))) (let ((.def_258 (or .def_0 A20))) (let ((.def_259 (or .def_258 .def_257))) (let ((.def_260 (not .def_259))) (let ((.def_261 (or .def_17 A10))) (let ((.def_262 (and .def_21 .def_209))) (let ((.def_263 (or .def_262 .def_261))) (let ((.def_264 (or .def_263 .def_260))) (let ((.def_265 (or A23 A18))) (let ((.def_266 (or .def_0 A16))) (let ((.def_267 (or .def_266 .def_265))) (let ((.def_268 (not .def_267))) (let ((.def_269 (or .def_17 .def_48))) (let ((.def_270 (not .def_269))) (let ((.def_271 (= A11 A22))) (let ((.def_272 (= .def_271 .def_270))) (let ((.def_273 (and .def_272 .def_268))) (let ((.def_274 (= .def_273 .def_264))) (let ((.def_275 (not .def_274))) (let ((.def_276 (= A11 .def_80))) (let ((.def_277 (or A18 .def_17))) (let ((.def_278 (not .def_277))) (let ((.def_279 (or .def_278 .def_276))) (let ((.def_280 (and .def_3 A11))) (let ((.def_281 (or A6 A19))) (let ((.def_282 (and .def_281 .def_280))) (let ((.def_283 (not .def_282))) (let ((.def_284 (and .def_283 .def_279))) (let ((.def_285 (not A16))) (let ((.def_286 (or A1 .def_285))) (let ((.def_287 (not .def_286))) (let ((.def_288 (= A2 A2))) (let ((.def_289 (and .def_288 .def_287))) (let ((.def_290 (not .def_289))) (let ((.def_291 (and A21 .def_74))) (let ((.def_292 (not .def_291))) (let ((.def_293 (or A20 A13))) (let ((.def_294 (= .def_293 .def_292))) (let ((.def_295 (not .def_294))) (let ((.def_296 (and .def_295 .def_290))) (let ((.def_297 (or .def_296 .def_284))) (let ((.def_298 (not .def_297))) (let ((.def_299 (= .def_298 .def_275))) (let ((.def_300 (not .def_299))) (let ((.def_301 (and .def_300 .def_255))) (let ((.def_302 (or .def_3 A14))) (let ((.def_303 (not .def_302))) (let ((.def_304 (and .def_98 A4))) (let ((.def_305 (not .def_304))) (let ((.def_306 (and .def_305 .def_303))) (let ((.def_307 (or A24 A14))) (let ((.def_308 (and .def_74 .def_41))) (let ((.def_309 (or .def_308 .def_307))) (let ((.def_310 (or .def_309 .def_306))) (let ((.def_311 (not .def_310))) (let ((.def_312 (or .def_36 A23))) (let ((.def_313 (not .def_312))) (let ((.def_314 (and .def_93 .def_21))) (let ((.def_315 (or .def_314 .def_313))) (let ((.def_316 (not .def_315))) (let ((.def_317 (or A22 .def_16))) (let ((.def_318 (and .def_285 A2))) (let ((.def_319 (not .def_318))) (let ((.def_320 (and .def_319 .def_317))) (let ((.def_321 (not .def_320))) (let ((.def_322 (or .def_321 .def_316))) (let ((.def_323 (not .def_322))) (let ((.def_324 (and .def_323 .def_311))) (let ((.def_325 (or A24 .def_48))) (let ((.def_326 (and .def_41 A3))) (let ((.def_327 (= .def_326 .def_325))) (let ((.def_328 (= A3 A4))) (let ((.def_329 (not .def_328))) (let ((.def_330 (or A15 A19))) (let ((.def_331 (or .def_330 .def_329))) (let ((.def_332 (not .def_331))) (let ((.def_333 (and .def_332 .def_327))) (let ((.def_334 (not .def_333))) (let ((.def_335 (or A13 A5))) (let ((.def_336 (not .def_335))) (let ((.def_337 (and .def_98 .def_285))) (let ((.def_338 (not .def_337))) (let ((.def_339 (and .def_338 .def_336))) (let ((.def_340 (and A11 A24))) (let ((.def_341 (not .def_340))) (let ((.def_342 (or .def_213 .def_58))) (let ((.def_343 (not .def_342))) (let ((.def_344 (or .def_343 .def_341))) (let ((.def_345 (not .def_344))) (let ((.def_346 (= .def_345 .def_339))) (let ((.def_347 (or .def_346 .def_334))) (let ((.def_348 (or .def_347 .def_324))) (let ((.def_349 (not .def_348))) (let ((.def_350 (and A21 .def_0))) (let ((.def_351 (= A10 .def_98))) (let ((.def_352 (= .def_351 .def_350))) (let ((.def_353 (= .def_209 A17))) (let ((.def_354 (not .def_353))) (let ((.def_355 (and A24 .def_43))) (let ((.def_356 (not .def_355))) (let ((.def_357 (= .def_356 .def_354))) (let ((.def_358 (not .def_357))) (let ((.def_359 (and .def_358 .def_352))) (let ((.def_360 (not .def_359))) (let ((.def_361 (or A1 .def_58))) (let ((.def_362 (not .def_361))) (let ((.def_363 (or A2 A18))) (let ((.def_364 (or .def_363 .def_362))) (let ((.def_365 (= .def_43 A23))) (let ((.def_366 (or .def_98 .def_74))) (let ((.def_367 (= .def_366 .def_365))) (let ((.def_368 (not .def_367))) (let ((.def_369 (= .def_368 .def_364))) (let ((.def_370 (and .def_369 .def_360))) (let ((.def_371 (not .def_370))) (let ((.def_372 (and .def_21 A20))) (let ((.def_373 (not .def_372))) (let ((.def_374 (= .def_30 A23))) (let ((.def_375 (= .def_374 .def_373))) (let ((.def_376 (or .def_8 A7))) (let ((.def_377 (or A7 .def_58))) (let ((.def_378 (= .def_377 .def_376))) (let ((.def_379 (or .def_378 .def_375))) (let ((.def_380 (and A9 .def_285))) (let ((.def_381 (not .def_380))) (let ((.def_382 (or A17 .def_58))) (let ((.def_383 (not .def_382))) (let ((.def_384 (or .def_383 .def_381))) (let ((.def_385 (and A9 .def_17))) (let ((.def_386 (not .def_385))) (let ((.def_387 (and A1 A3))) (let ((.def_388 (and .def_387 .def_386))) (let ((.def_389 (and .def_388 .def_384))) (let ((.def_390 (and .def_389 .def_379))) (let ((.def_391 (and .def_390 .def_371))) (let ((.def_392 (not .def_391))) (let ((.def_393 (or .def_392 .def_349))) (let ((.def_394 (and .def_393 .def_301))) (let ((.def_395 (not .def_394))) (let ((.def_396 (or .def_395 .def_207))) (let ((.def_397 (not .def_396))) .def_397)))))))))))))))))))))))))))))))))))))))))))))))))))))))))))))))))))))))))))))))))))))))))))))))))))))))))))))))))))))))))))))))))))))))))))))))))))))))))))))))))))))))))))))))))))))))))))))))))))))))))))))))))))))))))))))))))))))))))))))))))))))))))))))))))))))))))))))))))))))))))))))))))))))))))))))))))))))))))))))))))))))))))))))))))))))))))))))))))))))))))))))))))))))))))))))))))))))))))))))))
(check-sat)
